s td 25 4 25
b 1 2 25
b 2 4 6 18
b 3 9 25
b 4 1 10
b 5 11 25
b 6 16 19
b 7 5 16
b 8 5 20
b 9 15 21
b 10 15 18
b 11 1 13 25
b 12 13 23 25
b 13 3 5 17
b 14 4 5 17
b 15 7 8 23
b 16 4 8 23
b 17 4 17 25
b 18 4 18 23 25
b 19 18 23 25
b 20 23 25
b 21 25
b 22 12
b 23 14
b 24 22
b 25 24
1 21
1 22
1 23
1 24
1 25
2 18
3 21
4 11
5 21
6 7
7 14
8 14
9 10
10 19
11 12
12 20
13 14
14 17
15 16
16 18
17 18
18 19
19 20
20 21
